/* Objective function */
min:65*x11+73*x12+63*x13+57*x14+67*x21+70*x22+65*x23+58*x24+68*x31+72*x32+69*x33+55*x34+67*x41+75*x42+70*x43+59*x44+71*x51+69*x52+75*x53+57*x54+69*x61+71*x62+66*x63+59*x64;

/* Variable bounds */
C1:x11+x21+x31+x41+x51+x61=1;
C2:x12+x22+x32+x42+x52+x62=1;
C3:x13+x23+x33+x43+x53+x63=1;
C4:x14+x24+x34+x44+x54+x64=1;
C5:x11+x12+x13+x14<=1;
C6:x21+x22+x23+x24<=1;
C7:x31+x32+x33+x34<=1;
C8:x41+x42+x43+x44<=1;
C9:x51+x52+x53+x54<=1;
C10:x61+x62+x63+x64<=1;

binary x11,x12,x13,x14,x21,x22,x23,x24,x31,x32,x33,x34,x41,x42,x43,x44,x51,x52,x53,x54,x61,x62,x63,x64;
